Using license file /home/benedond/gurobi.lic
Using gurobi.env file
Set parameter Threads to value 1
Academic license - for non-commercial use only
Changed value of parameter TimeLimit to 300.0
   Prev: inf  Min: 0.0  Max: inf  Default: inf
Gurobi Optimizer version 9.0.1 build v9.0.1rc0 (linux64)
Optimize a model with 10250 rows, 5100 columns and 40198 nonzeros
Model fingerprint: 0x832cde97
Variable types: 50 continuous, 5050 integer (5000 binary)
Coefficient statistics:
  Matrix range     [2e-01, 8e+03]
  Objective range  [5e-04, 2e-01]
  Bounds range     [1e+00, 1e+00]
  RHS range        [1e+00, 8e+03]

---------------------------------------------------------------------------
Multi-objectives: starting optimization with 1 objectives ... 
---------------------------------------------------------------------------
---------------------------------------------------------------------------

Multi-objectives: optimize objective 1 (min avg power cons) ...
---------------------------------------------------------------------------

Optimize a model with 10250 rows, 5100 columns and 40198 nonzeros
Variable types: 50 continuous, 5050 integer (5000 binary)
Coefficient statistics:
  Matrix range     [2e-01, 8e+03]
  Objective range  [5e-04, 2e-01]
  Bounds range     [1e+00, 1e+00]
  RHS range        [1e+00, 8e+03]
Presolve removed 3478 rows and 1739 columns
Presolve time: 0.63s
Presolved: 6772 rows, 3361 columns, 26286 nonzeros
Variable types: 50 continuous, 3311 integer (3261 binary)

Root relaxation: objective 1.461722e+00, 955 iterations, 0.06 seconds

    Nodes    |    Current Node    |     Objective Bounds      |     Work
 Expl Unexpl |  Obj  Depth IntInf | Incumbent    BestBd   Gap | It/Node Time

     0     0    1.46172    0  149          -    1.46172      -     -    2s
     0     0    1.46172    0  120          -    1.46172      -     -    3s
     0     0    1.46172    0  124          -    1.46172      -     -    4s
     0     0    1.46172    0  146          -    1.46172      -     -    4s
     0     0    1.46172    0  169          -    1.46172      -     -    4s
     0     0    1.52220    0  224          -    1.52220      -     -    5s
     0     0    1.52567    0  157          -    1.52567      -     -    5s
     0     0    1.53422    0  193          -    1.53422      -     -    5s
     0     0    1.53422    0  215          -    1.53422      -     -    5s
     0     0    1.58247    0  170          -    1.58247      -     -    5s
H    0     0                       3.6537925    1.58247  56.7%     -    5s
H    0     0                       3.3631793    1.58247  52.9%     -    6s
     0     0    1.58247    0  182    3.36318    1.58247  52.9%     -    6s
     0     0    1.65475    0  155    3.36318    1.65475  50.8%     -    6s
     0     0    1.65588    0  167    3.36318    1.65588  50.8%     -    6s
     0     0    1.68227    0  211    3.36318    1.68227  50.0%     -    6s
     0     0    1.68361    0  208    3.36318    1.68361  49.9%     -    6s
     0     0    1.72575    0  192    3.36318    1.72575  48.7%     -    7s
     0     0    1.72792    0  175    3.36318    1.72792  48.6%     -    7s
     0     0    1.73217    0  170    3.36318    1.73217  48.5%     -    7s
     0     0    1.73321    0  160    3.36318    1.73321  48.5%     -    7s
     0     0    1.74618    0  170    3.36318    1.74618  48.1%     -    7s
H    0     0                       3.3189812    1.74618  47.4%     -    8s
     0     0    1.76173    0  238    3.31898    1.76173  46.9%     -    8s
     0     0    1.76620    0  226    3.31898    1.76620  46.8%     -    8s
     0     0    1.76655    0  236    3.31898    1.76655  46.8%     -    8s
     0     0    1.76935    0  235    3.31898    1.76935  46.7%     -    8s
     0     0    1.77054    0  319    3.31898    1.77054  46.7%     -    8s
     0     0    1.77341    0  281    3.31898    1.77341  46.6%     -    9s
     0     0    1.77445    0  286    3.31898    1.77445  46.5%     -    9s
     0     0    1.77721    0  295    3.31898    1.77721  46.5%     -    9s
     0     0    1.77782    0  263    3.31898    1.77782  46.4%     -    9s
     0     0    1.77967    0  316    3.31898    1.77967  46.4%     -    9s
H    0     0                       3.2824670    1.77967  45.8%     -    9s
     0     0    1.77994    0  332    3.28247    1.77994  45.8%     -   10s
     0     0    1.78270    0  282    3.28247    1.78270  45.7%     -   10s
     0     0    1.78366    0  307    3.28247    1.78366  45.7%     -   10s
     0     0    1.78544    0  307    3.28247    1.78544  45.6%     -   10s
     0     0    1.78609    0  313    3.28247    1.78609  45.6%     -   10s
     0     0    1.78857    0  305    3.28247    1.78857  45.5%     -   10s
     0     0    1.78925    0  356    3.28247    1.78925  45.5%     -   11s
     0     0    1.79026    0  329    3.28247    1.79026  45.5%     -   11s
     0     0    1.79051    0  350    3.28247    1.79051  45.5%     -   11s
     0     0    1.79063    0  345    3.28247    1.79063  45.4%     -   11s
     0     0    1.79063    0  348    3.28247    1.79063  45.4%     -   11s
     0     0    1.79230    0  312    3.28247    1.79230  45.4%     -   11s
H    0     0                       3.1482406    1.79230  43.1%     -   12s
     0     0    1.79312    0  331    3.14824    1.79312  43.0%     -   12s
     0     0    1.79343    0  322    3.14824    1.79343  43.0%     -   12s
     0     0    1.79350    0  337    3.14824    1.79350  43.0%     -   12s
     0     0    1.79510    0  331    3.14824    1.79510  43.0%     -   12s
     0     0    1.79546    0  334    3.14824    1.79546  43.0%     -   12s
     0     0    1.79551    0  364    3.14824    1.79551  43.0%     -   12s
     0     0    1.79694    0  295    3.14824    1.79694  42.9%     -   13s
     0     0    1.79709    0  357    3.14824    1.79709  42.9%     -   13s
     0     0    1.79739    0  364    3.14824    1.79739  42.9%     -   13s
     0     0    1.79767    0  356    3.14824    1.79767  42.9%     -   13s
     0     0    1.79783    0  392    3.14824    1.79783  42.9%     -   13s
     0     0    1.79792    0  383    3.14824    1.79792  42.9%     -   13s
     0     0    1.79908    0  353    3.14824    1.79908  42.9%     -   13s
     0     0    1.79953    0  340    3.14824    1.79953  42.8%     -   14s
     0     0    1.79960    0  334    3.14824    1.79960  42.8%     -   14s
     0     0    1.80111    0  377    3.14824    1.80111  42.8%     -   14s
     0     0    1.80232    0  354    3.14824    1.80232  42.8%     -   14s
     0     0    1.80306    0  327    3.14824    1.80306  42.7%     -   14s
     0     0    1.80344    0  334    3.14824    1.80344  42.7%     -   15s
     0     0    1.80346    0  350    3.14824    1.80346  42.7%     -   15s
     0     0    1.80375    0  367    3.14824    1.80375  42.7%     -   15s
     0     0    1.80375    0  359    3.14824    1.80375  42.7%     -   15s
H    0     0                       3.1180189    1.80375  42.2%     -   16s
     0     2    1.80375    0  359    3.11802    1.80375  42.2%     -   16s
H    9     9                       3.0551745    1.80667  40.9%   774   19s
    15    17    1.89526   10  270    3.05517    1.80667  40.9%  1100   20s
H   27    27                       3.0529104    1.80667  40.8%   854   22s
H   81    79                       3.0526132    1.80667  40.8%   485   24s
    88    86    2.13980   69  166    3.05261    1.80667  40.8%   471   25s
H  162   129                       3.0469245    1.81118  40.6%   325   26s
H  189   152                       3.0455849    1.81118  40.5%   310   27s
H  243   206                       3.0205566    1.81118  40.0%   245   28s
   398   361    2.74766  243  337    3.02056    1.81118  40.0%   167   30s
   511   458    1.91900    2  120    3.02056    1.81122  40.0%   177   37s
   525   467    2.87422  298  306    3.02056    1.81122  40.0%   172   40s
   535   474    2.67186  111  389    3.02056    1.81128  40.0%   169   47s
   539   477    1.81447   11  298    3.02056    1.81447  39.9%   210   50s
   544   480    1.81733   14  305    3.02056    1.81578  39.9%   220   55s
   555   487    1.82883   19  274    3.02056    1.81578  39.9%   237   60s
   572   499    1.86191   28  234    3.02056    1.81578  39.9%   257   65s
H  589   481                       2.9975755    1.81578  39.4%   274   70s
   616   501    1.99093   50  153    2.99758    1.81578  39.4%   299   76s
H  643   495                       2.9823066    1.81578  39.1%   303   79s
   670   513    2.36254   77   93    2.98231    1.81578  39.1%   295   80s
   778   559    1.89163   20  222    2.98231    1.81782  39.0%   276   85s
   886   622    2.26369   74  149    2.98231    1.81782  39.0%   269   90s
H  979   653                       2.9485142    1.81782  38.3%   254   95s
H  993   641                       2.9477500    1.81782  38.3%   251   95s
  1082   671    1.96127   22  243    2.94775    1.83687  37.7%   246  100s
  1214   751    2.53364   88  125    2.94775    1.83687  37.7%   239  105s
  1459   823    2.21264   46  234    2.94775    1.83687  37.7%   216  110s
  1741   979    1.86278   20  252    2.94775    1.83799  37.6%   191  115s
  1780  1018    2.30101   46  134    2.94775    1.83799  37.6%   198  120s
H 1795  1025                       2.9295802    1.83799  37.3%   198  121s
  1986  1187    1.88209   17  248    2.92958    1.83819  37.3%   185  133s
  1996  1197    2.00537   23  216    2.92958    1.83819  37.3%   187  135s
  2192  1386    2.66720  152   97    2.92958    1.83819  37.3%   181  140s
  2367  1491    2.47079   22  255    2.92958    1.86853  36.2%   178  145s
  2620  1709    2.76877  127  100    2.92958    1.87860  35.9%   171  150s
  2712  1768     cutoff   71         2.92958    1.87970  35.8%   174  155s
H 2958  1922                       2.8930472    1.88416  34.9%   166  165s
  3010  1970    2.18026   71  237    2.89305    1.88453  34.9%   167  170s
  3158  2099    2.26749   36  170    2.89305    1.88518  34.8%   167  175s
  3534  2389    2.57250   69  104    2.89305    1.88606  34.8%   157  180s
  3836  2628    2.84794   74   88    2.89305    1.88969  34.7%   151  185s
  3982  2702    2.07186   27  178    2.89305    1.89693  34.4%   151  190s
  4241  2917    2.77753   85   68    2.89305    1.89849  34.4%   148  195s
  4548  3155    2.73306   25  236    2.89305    1.90275  34.2%   144  200s
  4809  3347     cutoff  111         2.89305    1.90826  34.0%   143  205s
  4954  3444    2.06444   22  175    2.89305    1.91477  33.8%   144  210s
  5093  3561    2.28238   72  148    2.89305    1.91828  33.7%   144  215s
  5264  3678    1.98663   34  216    2.89305    1.92442  33.5%   143  220s
  5385  3783    1.96558   17  398    2.89305    1.92693  33.4%   143  225s
  5463  3859    2.83488   94  115    2.89305    1.92693  33.4%   144  230s
  5525  3889    2.56724   21  207    2.89305    1.92824  33.3%   146  235s
  5872  4177    2.58582   86  123    2.89305    1.93002  33.3%   141  240s
H 5994  4085                       2.8495283    1.93002  32.3%   139  249s
  5995  4088    2.22672   35  264    2.84953    1.93063  32.2%   140  250s
  6063  4139    2.18887   45  181    2.84953    1.93083  32.2%   141  255s
  6152  4228    2.26464   90  139    2.84953    1.93083  32.2%   145  260s
  6465  4440    2.07596   29  302    2.84953    1.93326  32.2%   143  265s
  6605  4553    2.00032   30  372    2.84953    1.93441  32.1%   143  270s
  6629  4577    2.10905   54  259    2.84953    1.93441  32.1%   145  275s
  6808  4729    2.23975   45  181    2.84953    1.93563  32.1%   145  280s
  6991  4871    1.95843   29  380    2.84953    1.93784  32.0%   144  285s
  7180  5033    2.71888   60  140    2.84953    1.93828  32.0%   144  290s
  7414  5227    2.52244   88  189    2.84953    1.93902  32.0%   142  295s

Cutting planes:
  Learned: 1
  Gomory: 6
  Cover: 19
  Implied bound: 233
  Projected implied bound: 78
  MIR: 112
  StrongCG: 1
  Flow cover: 233
  GUB cover: 6
  Mod-K: 5
  RLT: 1
  Relax-and-lift: 355

Explored 7641 nodes (1130610 simplex iterations) in 300.00 seconds
Thread count was 1 (of 4 available processors)

Solution count 10: 2.84953 2.89305 2.92958 ... 3.04692

Time limit reached
Best objective 2.849528318320e+00, best bound 1.941952886208e+00, gap 31.8500%

---------------------------------------------------------------------------
Multi-objectives: stopped in 300.01 seconds, solution count 10
Time Limit reached

